100 8
144 612
49 446
220 810
610 201
575 622
80 389
176 692
847 106
103 465
472 315
325 287
182 305
633 582
202 311
141 321
806 737
748 541
151 185
839 366
631 157
741 647
627 168
588 62
601 462
573 97
468 494
760 387
606 462
423 307
804 400
409 404
256 324
145 478
608 311
496 267
387 485
538 298
711 581
507 619
100 152
722 570
771 716
532 104
127 539
850 39
559 454
507 486
398 302
463 469
116 209
669 709
286 616
839 444
245 702
605 72
718 191
172 854
166 667
702 649
44 420
174 358
266 329
597 535
438 284
158 592
872 783
114 694
781 767
667 563
226 168
330 798
171 604
737 294
403 577
749 307
706 579
205 436
751 489
427 556
689 653
798 292
404 538
835 398
589 133
714 473
344 395
575 750
896 745
448 396
643 736
454 473
560 453
186 370
655 226
282 879
522 403
858 141
502 401
75 314
747 602
